p tw 29 36
1 6
2 3
2 8
3 4
3 9
4 5
4 10
5 11
6 7
6 12
7 8
8 9
9 10
9 13
10 11
11 14
13 17
14 19
15 16
15 21
16 17
16 22
17 18
18 19
18 23
20 21
20 24
21 22
21 25
22 26
23 28
24 25
25 26
26 27
27 28
28 29
